000010110100101011100110101100110001101001111101010010101010100010110011110000110001100010001100010000111000111111100010110100110000011100111011111110010011101100111100001110001100111000001000011010011101011111000000101001011110010001011000110100111110010111101100010111011011000110110110110011001100111001101111010110000000110101100110011000110101110011100100010010000010100011111001100011010011111111000010100101100011110110000000110101110110111010000111000111101101001001011100111110011010000011001010110100101110101000100110000011011000101000011010001110111000110001101011010100110101000111101111101110010100101110001100000110011111101111110111000011100110010011110000110100110110111011111010100010011111011111001010010101001111011010101001010010010110000011001100